%%%mzn-stat: initTime=0.034208944
%%%mzn-stat: objective=147
%%%mzn-stat: nodes=5800913
%%%mzn-stat: restarts=7923
%%%mzn-stat: peakDepth=1255
%%%mzn-stat: solveTime=1420.415653913
%%%mzn-stat: variables=2392
%%%mzn-stat: propagators=13178
%%%mzn-stat: failures=2934594
%%%mzn-stat: propagations=1963013441
%%%mzn-stat: nogoods=2934594
%%%mzn-stat: AverageConflictSize=13.220923235036942
%%%mzn-stat: NumUnitNogoodsLearned=127
%%%mzn-stat: AverageLearnedNogoodLength=40.485253837498476
%%%mzn-stat: AverageBacktrackAmount=0
%%%mzn-stat: AverageLbd=13.529149177024147
%%%mzn-stat-end
maxleg = 147;
succ = array1d(1..150,[35, 140, 32, 150, 112, 109, 113, 137, 101, 111, 12, 149, 142, 95, 124, 99, 16, 98, 48, 7, 19, 66, 34, 131, 76, 13, 11, 97, 50, 43, 117, 70, 130, 64, 120, 132, 20, 15, 110, 60, 105, 77, 5, 82, 122, 2, 145, 69, 89, 18, 126, 103, 30, 9, 17, 128, 108, 146, 88, 22, 114, 53, 96, 133, 49, 90, 83, 92, 36, 107, 42, 93, 51, 79, 4, 136, 24, 115, 81, 37, 148, 1, 135, 23, 46, 67, 86, 87, 138, 63, 121, 3, 71, 44, 118, 39, 91, 6, 14, 28, 85, 61, 129, 31, 68, 143, 116, 73, 106, 26, 29, 119, 47, 10, 94, 38, 56, 21, 127, 134, 80, 40, 144, 74, 147, 102, 100, 84, 58, 104, 62, 41, 141, 25, 65, 72, 78, 125, 33, 75, 27, 8, 59, 52, 139, 54, 45, 123, 55, 57]);
% time elapsed: 1420.82 s
----------
%%%mzn-stat: initTime=0.034208944
%%%mzn-stat: objective=146
%%%mzn-stat: nodes=5802807
%%%mzn-stat: restarts=7924
%%%mzn-stat: peakDepth=1448
%%%mzn-stat: solveTime=1420.540300177
%%%mzn-stat: variables=2392
%%%mzn-stat: propagators=13178
%%%mzn-stat: failures=2934703
%%%mzn-stat: propagations=1963122507
%%%mzn-stat: nogoods=2934703
%%%mzn-stat: AverageConflictSize=13.22083767931542
%%%mzn-stat: NumUnitNogoodsLearned=127
%%%mzn-stat: AverageLearnedNogoodLength=40.48548524331082
%%%mzn-stat: AverageBacktrackAmount=0
%%%mzn-stat: AverageLbd=13.529262075242366
%%%mzn-stat-end
maxleg = 146;
succ = array1d(1..150,[35, 90, 32, 150, 112, 109, 113, 137, 101, 111, 12, 149, 142, 95, 124, 99, 16, 98, 48, 7, 19, 66, 34, 131, 76, 13, 11, 97, 50, 43, 117, 70, 130, 64, 120, 132, 20, 15, 110, 60, 105, 77, 5, 82, 122, 2, 145, 69, 89, 18, 126, 103, 62, 9, 17, 128, 108, 146, 88, 22, 114, 30, 96, 133, 49, 81, 83, 92, 36, 107, 42, 93, 51, 79, 4, 136, 24, 115, 140, 37, 148, 1, 135, 23, 46, 67, 86, 87, 138, 63, 121, 3, 71, 44, 118, 39, 91, 6, 14, 28, 85, 61, 129, 31, 68, 143, 116, 73, 106, 26, 29, 119, 47, 10, 94, 38, 56, 21, 127, 134, 80, 40, 144, 74, 147, 102, 100, 84, 58, 104, 53, 41, 141, 25, 65, 72, 78, 125, 33, 75, 27, 8, 59, 52, 139, 54, 45, 123, 55, 57]);
% time elapsed: 1420.91 s
----------
%%%mzn-stat: initTime=0.034208944
%%%mzn-stat: objective=144
%%%mzn-stat: nodes=5809255
%%%mzn-stat: restarts=7931
%%%mzn-stat: peakDepth=1448
%%%mzn-stat: solveTime=1421.398803427
%%%mzn-stat: variables=2392
%%%mzn-stat: propagators=13178
%%%mzn-stat: failures=2936066
%%%mzn-stat: propagations=1964199100
%%%mzn-stat: nogoods=2936066
%%%mzn-stat: AverageConflictSize=13.219792061895067
%%%mzn-stat: NumUnitNogoodsLearned=127
%%%mzn-stat: AverageLearnedNogoodLength=40.48267341401726
%%%mzn-stat: AverageBacktrackAmount=0
%%%mzn-stat: AverageLbd=13.529601514407373
%%%mzn-stat-end
maxleg = 144;
succ = array1d(1..150,[35, 90, 32, 150, 112, 109, 113, 137, 101, 111, 12, 149, 142, 95, 124, 99, 16, 98, 48, 7, 19, 66, 34, 131, 76, 13, 11, 97, 106, 43, 117, 70, 130, 64, 120, 132, 20, 15, 110, 60, 105, 77, 5, 82, 122, 2, 145, 69, 89, 73, 126, 103, 62, 9, 17, 128, 108, 146, 88, 22, 114, 30, 96, 133, 49, 81, 83, 92, 36, 107, 42, 93, 51, 79, 4, 136, 24, 115, 140, 37, 148, 1, 135, 23, 46, 67, 86, 87, 138, 63, 121, 3, 71, 44, 118, 39, 91, 6, 14, 28, 85, 10, 129, 31, 68, 143, 116, 18, 50, 26, 61, 119, 47, 29, 94, 38, 56, 21, 127, 134, 80, 40, 144, 74, 147, 102, 100, 84, 58, 104, 53, 41, 141, 25, 65, 72, 78, 125, 33, 75, 27, 8, 59, 52, 139, 54, 45, 123, 55, 57]);
% time elapsed: 1421.78 s
----------
%%%mzn-stat: initTime=0.034208944
%%%mzn-stat: objective=143
%%%mzn-stat: nodes=5811156
%%%mzn-stat: restarts=7932
%%%mzn-stat: peakDepth=1448
%%%mzn-stat: solveTime=1421.509051168
%%%mzn-stat: variables=2392
%%%mzn-stat: propagators=13178
%%%mzn-stat: failures=2936167
%%%mzn-stat: propagations=1964339259
%%%mzn-stat: nogoods=2936167
%%%mzn-stat: AverageConflictSize=13.219754530311116
%%%mzn-stat: NumUnitNogoodsLearned=127
%%%mzn-stat: AverageLearnedNogoodLength=40.48256962223198
%%%mzn-stat: AverageBacktrackAmount=0
%%%mzn-stat: AverageLbd=13.529691260749134
%%%mzn-stat-end
maxleg = 143;
succ = array1d(1..150,[35, 90, 32, 150, 112, 109, 113, 137, 101, 111, 12, 149, 142, 95, 124, 99, 16, 98, 48, 7, 19, 66, 34, 131, 76, 13, 11, 97, 106, 43, 56, 70, 130, 64, 117, 132, 20, 15, 110, 60, 105, 77, 5, 82, 122, 2, 145, 69, 89, 73, 126, 103, 62, 9, 17, 120, 108, 146, 88, 22, 114, 30, 96, 133, 49, 81, 83, 92, 36, 107, 42, 93, 51, 79, 4, 136, 24, 115, 140, 37, 148, 1, 135, 23, 46, 67, 86, 87, 138, 63, 121, 3, 71, 44, 118, 39, 91, 6, 14, 28, 85, 10, 129, 128, 68, 143, 116, 18, 50, 26, 61, 119, 47, 29, 94, 38, 31, 21, 127, 134, 80, 40, 144, 74, 147, 102, 100, 84, 58, 104, 53, 41, 141, 25, 65, 72, 78, 125, 33, 75, 27, 8, 59, 52, 139, 54, 45, 123, 55, 57]);
% time elapsed: 1421.89 s
----------
%%%mzn-stat: initTime=0.034208944
%%%mzn-stat: objective=142
%%%mzn-stat: nodes=5812960
%%%mzn-stat: restarts=7933
%%%mzn-stat: peakDepth=1448
%%%mzn-stat: solveTime=1421.612339125
%%%mzn-stat: variables=2392
%%%mzn-stat: propagators=13178
%%%mzn-stat: failures=2936256
%%%mzn-stat: propagations=1964481919
%%%mzn-stat: nogoods=2936256
%%%mzn-stat: AverageConflictSize=13.219778520673946
%%%mzn-stat: NumUnitNogoodsLearned=127
%%%mzn-stat: AverageLearnedNogoodLength=40.483105015366505
%%%mzn-stat: AverageBacktrackAmount=0
%%%mzn-stat: AverageLbd=13.529783506615226
%%%mzn-stat-end
maxleg = 142;
succ = array1d(1..150,[35, 90, 32, 150, 112, 109, 113, 137, 101, 111, 12, 149, 142, 95, 124, 119, 53, 98, 48, 7, 19, 66, 34, 131, 76, 13, 11, 97, 106, 99, 56, 70, 130, 64, 117, 132, 20, 15, 110, 60, 105, 77, 5, 82, 122, 2, 145, 69, 89, 73, 126, 103, 62, 9, 17, 120, 108, 146, 88, 22, 114, 43, 96, 133, 49, 81, 83, 92, 36, 107, 42, 93, 51, 79, 4, 136, 24, 115, 140, 37, 148, 1, 135, 23, 46, 67, 86, 87, 138, 63, 121, 3, 16, 44, 118, 39, 91, 6, 14, 28, 85, 10, 129, 128, 68, 143, 116, 18, 50, 26, 61, 71, 47, 29, 94, 38, 31, 21, 127, 134, 80, 40, 144, 74, 147, 102, 100, 84, 58, 104, 30, 41, 141, 25, 65, 72, 78, 125, 33, 75, 27, 8, 59, 52, 139, 54, 45, 123, 55, 57]);
% time elapsed: 1422.00 s
----------
%%%mzn-stat: initTime=0.034208944
%%%mzn-stat: objective=140
%%%mzn-stat: nodes=5815415
%%%mzn-stat: restarts=7934
%%%mzn-stat: peakDepth=1448
%%%mzn-stat: solveTime=1421.8705527
%%%mzn-stat: variables=2392
%%%mzn-stat: propagators=13178
%%%mzn-stat: failures=2936644
%%%mzn-stat: propagations=1964737222
%%%mzn-stat: nogoods=2936644
%%%mzn-stat: AverageConflictSize=13.220662089105796
%%%mzn-stat: NumUnitNogoodsLearned=127
%%%mzn-stat: AverageLearnedNogoodLength=40.48325128956728
%%%mzn-stat: AverageBacktrackAmount=0
%%%mzn-stat: AverageLbd=13.5301378035608
%%%mzn-stat-end
maxleg = 140;
succ = array1d(1..150,[35, 90, 32, 150, 112, 109, 145, 137, 101, 111, 12, 149, 142, 95, 124, 119, 53, 98, 68, 7, 19, 63, 34, 131, 76, 13, 11, 97, 106, 62, 56, 70, 130, 64, 117, 132, 20, 15, 110, 60, 105, 77, 5, 82, 122, 79, 33, 3, 138, 73, 126, 103, 30, 9, 17, 120, 108, 146, 88, 22, 114, 43, 96, 133, 49, 81, 83, 92, 36, 107, 42, 93, 51, 66, 4, 136, 24, 115, 140, 37, 148, 1, 135, 23, 46, 67, 86, 87, 69, 74, 121, 89, 71, 44, 118, 39, 91, 6, 14, 28, 85, 10, 129, 128, 48, 143, 116, 18, 50, 26, 61, 99, 47, 29, 94, 38, 31, 21, 127, 134, 80, 40, 144, 2, 147, 102, 100, 84, 58, 104, 16, 41, 141, 25, 65, 72, 78, 125, 113, 75, 27, 8, 59, 52, 139, 54, 45, 123, 55, 57]);
% time elapsed: 1422.26 s
----------
%%%mzn-stat: initTime=0.034208944
%%%mzn-stat: objective=139
%%%mzn-stat: nodes=5816976
%%%mzn-stat: restarts=7935
%%%mzn-stat: peakDepth=1448
%%%mzn-stat: solveTime=1421.927997179
%%%mzn-stat: variables=2392
%%%mzn-stat: propagators=13178
%%%mzn-stat: failures=2936677
%%%mzn-stat: propagations=1964795927
%%%mzn-stat: nogoods=2936677
%%%mzn-stat: AverageConflictSize=13.22057822498014
%%%mzn-stat: NumUnitNogoodsLearned=127
%%%mzn-stat: AverageLearnedNogoodLength=40.483142340815824
%%%mzn-stat: AverageBacktrackAmount=0
%%%mzn-stat: AverageLbd=13.53016283370626
%%%mzn-stat-end
maxleg = 139;
succ = array1d(1..150,[35, 90, 32, 150, 112, 109, 145, 137, 101, 111, 12, 149, 142, 95, 124, 119, 53, 98, 36, 7, 19, 63, 31, 131, 76, 13, 11, 97, 106, 62, 56, 70, 130, 64, 117, 132, 34, 15, 110, 60, 68, 77, 5, 82, 122, 79, 33, 92, 138, 73, 126, 103, 30, 9, 17, 120, 108, 146, 88, 22, 114, 43, 96, 133, 49, 81, 83, 105, 3, 107, 42, 93, 51, 66, 4, 136, 24, 115, 140, 37, 148, 1, 135, 23, 46, 67, 86, 87, 69, 74, 121, 89, 71, 44, 118, 39, 91, 6, 14, 28, 85, 10, 123, 128, 48, 143, 116, 18, 50, 26, 61, 99, 47, 29, 94, 38, 20, 21, 127, 134, 80, 40, 129, 2, 147, 102, 100, 84, 58, 104, 16, 41, 141, 25, 65, 72, 78, 125, 113, 75, 27, 8, 59, 52, 139, 54, 45, 144, 55, 57]);
% time elapsed: 1422.33 s
----------
%%%mzn-stat: initTime=0.034208944
%%%mzn-stat: objective=138
%%%mzn-stat: nodes=5818964
%%%mzn-stat: restarts=7936
%%%mzn-stat: peakDepth=1448
%%%mzn-stat: solveTime=1422.065189905
%%%mzn-stat: variables=2392
%%%mzn-stat: propagators=13178
%%%mzn-stat: failures=2936827
%%%mzn-stat: propagations=1964989601
%%%mzn-stat: nogoods=2936827
%%%mzn-stat: AverageConflictSize=13.220404198136288
%%%mzn-stat: NumUnitNogoodsLearned=127
%%%mzn-stat: AverageLearnedNogoodLength=40.48293277063988
%%%mzn-stat: AverageBacktrackAmount=0
%%%mzn-stat: AverageLbd=13.53017355125106
%%%mzn-stat-end
maxleg = 138;
succ = array1d(1..150,[35, 90, 32, 150, 112, 109, 145, 137, 101, 111, 12, 149, 142, 95, 124, 119, 53, 98, 36, 7, 19, 63, 31, 131, 76, 13, 11, 97, 106, 62, 56, 70, 130, 64, 117, 132, 34, 15, 110, 60, 68, 77, 5, 82, 122, 79, 33, 92, 138, 73, 126, 103, 30, 9, 17, 120, 108, 146, 88, 22, 114, 43, 96, 133, 49, 81, 83, 105, 3, 107, 42, 93, 51, 66, 4, 136, 24, 115, 140, 37, 148, 1, 135, 23, 46, 67, 86, 87, 69, 74, 121, 89, 71, 44, 118, 39, 91, 6, 14, 28, 85, 10, 123, 128, 48, 143, 116, 18, 50, 26, 61, 99, 47, 29, 94, 38, 20, 21, 127, 134, 80, 40, 129, 2, 147, 102, 100, 84, 58, 104, 16, 41, 141, 25, 65, 72, 78, 125, 113, 75, 27, 8, 59, 52, 139, 54, 45, 144, 55, 57]);
% time elapsed: 1422.47 s
----------
%%%mzn-stat: initTime=0.034208944
%%%mzn-stat: objective=138
%%%mzn-stat: nodes=7108527
%%%mzn-stat: restarts=10060
%%%mzn-stat: peakDepth=1448
%%%mzn-stat: solveTime=1799.614562245
%%%mzn-stat: variables=2392
%%%mzn-stat: propagators=13178
%%%mzn-stat: failures=3599012
%%%mzn-stat: propagations=2363410089
%%%mzn-stat: nogoods=3599012
%%%mzn-stat: AverageConflictSize=14.93307302115136
%%%mzn-stat: NumUnitNogoodsLearned=127
%%%mzn-stat: AverageLearnedNogoodLength=43.60331418733808
%%%mzn-stat: AverageBacktrackAmount=0
%%%mzn-stat: AverageLbd=13.502688237771922
%%%mzn-stat-end
